6054
1 0 0 0 0 1 0 1 1 0 1 0 0 1 1 0 1 0 1 0 
0 0 0 0 0 0 0 0 0 0 0 5 5 5 5 5 5 5 5 5 5 5 5 5 7 7 7 7 7 7 7 8 8 8 8 8 8 8 8 8 13 13 10 10 10 10 10 10 13 13 13 13 13 13 13 14 14 13 14 13 13 14 14 14 14 16 16 16 16 16 16 16 16 18 18 18 18 18 18 18 
